words_hard_train/2959.qaiger
aag 47 16 0 1 31
2
4
12
14
24
26
34
36
48
50
60
62
70
72
82
84
94
6 3 4
8 2 5
10 7 9
16 12 15
18 13 14
20 17 19
22 10 20
28 25 27
30 24 26
32 29 31
38 34 37
40 35 36
42 39 41
44 32 43
46 22 45
52 48 50
54 49 51
56 53 55
58 47 56
64 61 62
66 60 63
68 65 67
74 70 72
76 71 73
78 75 77
80 69 78
86 82 85
88 83 84
90 87 89
92 80 90
94 58 92
i0 2 y2[2]
i1 1 x2[5]
i2 2 y2[3]
i3 1 x2[4]
i4 2 y2[1]
i5 1 x2[6]
i6 2 y2[0]
i7 1 x2[7]
i8 2 y2[6]
i9 1 x2[1]
i10 2 y2[4]
i11 1 x2[3]
i12 2 y2[5]
i13 1 x2[2]
i14 2 y2[7]
i15 1 x2[0]
o0 bv[0]
c
simplified
  >=
    xor
      reverse
        1 x2
      2 y2
    add
      114
      1
